experiments/eusolverstring/0/TrainGenes/1011100101011011101111011011111101111011101111000100010000/185_.out
1 {f:func30(Param0,","," ",Param1)}
0.0000640000
0.0000000000
0.3663880000
